\ LP format - for model browsing. Use MPS format to capture full model detail.
Maximize
  138.24 x_00 + 115.2 x_10 + 46.08 x_20 + 92.16 x_30 + 46.08 x_40
   + 184.32 x_50 + 69.12 x_60 + 92.16 x_70 + 138.24 x_80 + 46.08 x_90
   + 184.32 x_100 + 46.08 x_110 + 161.28 x_120 + 69.12 x_130 + 115.2 x_01
   + 115.2 x_11 + 138.24 x_21 + 184.32 x_31 + 69.12 x_41 + 46.08 x_51
   + 46.08 x_61 + 161.28 x_71 + 92.16 x_81 + 115.2 x_91 + 161.28 x_101
   + 138.24 x_111 + 92.16 x_121 + 115.2 x_131 + 69.12 x_141 + 138.24 x_151
   + 138.24 x_161 + 115.2 x_02 + 69.12 x_12 + 46.08 x_22 + 184.32 x_32
   + 138.24 x_42 + 46.08 x_52 + 115.2 x_62 + 46.08 x_72 + 69.12 x_82
   + 92.16 x_92 + 115.2 x_102 + 184.32 x_112 + 46.08 x_122 + 184.32 x_132
   + 161.28 x_142 + 115.2 x_152 + 92.16 x_162 + 46.08 x_172 + 46.08 x_182
   + 92.16 x_192 + 115.2 x_03 + 138.24 x_13 + 161.28 x_23 + 161.28 x_33
   + 69.12 x_43 + 69.12 x_53 + 92.16 x_63 + 115.2 x_73 + 46.08 x_83
   + 69.12 x_93 + 92.16 x_103 + 138.24 x_113 + 46.08 x_123 + 138.24 x_133
   + 92.16 x_04 + 92.16 x_14 + 92.16 x_24 + 46.08 x_34 + 161.28 x_44
   + 184.32 x_54 + 138.24 x_64 + 138.24 x_74 + 46.08 x_84 + 184.32 x_94
   + 92.16 x_104 + 161.28 x_114 + 161.28 x_124 + 161.28 x_134
   + 138.24 x_144 + 138.24 x_154 + 69.12 x_164 + 161.28 x_174 + 46.08 x_184
   + 92.16 x_194 + 138.24 x_204 + 115.2 x_214 + 69.12 x_224 + 161.28 x_234
   + 161.28 x_244 + 92.16 x_254 + 115.2 x_05 + 69.12 x_15 + 138.24 x_25
   + 161.28 x_35 + 46.08 x_45 + 161.28 x_55 + 161.28 x_65 + 69.12 x_75
   + 69.12 x_85 + 69.12 x_95 + 184.32 x_105 + 46.08 x_115 + 92.16 x_125
   + 69.12 x_135 + 115.2 x_145 + 115.2 x_155 + 138.24 x_165 + 138.24 x_175
   + 46.08 x_185 + 138.24 x_195 + 138.24 x_205 + 69.12 x_215 + 184.32 x_225
   + 161.28 x_235 + 115.2 x_245 + 184.32 x_255 + 161.28 x_265 + 46.08 x_275
   + 184.32 x_285 + 92.16 x_295 + 46.08 x_305 + 46.08 x_315 + 92.16 x_325
   + 184.32 x_06 + 46.08 x_16 + 46.08 x_26 + 138.24 x_36 + 138.24 x_46
   + 138.24 x_56 + 92.16 x_66 + 69.12 x_76 + 92.16 x_86 + 161.28 x_96
   + 69.12 x_106 - 880 b_0 - 880 b_1 - 880 b_2 - 880 b_3 - 880 b_4
   - 880 b_5 - 880 b_6
Subject To
 R0: 15 x_00 + 15 x_10 + 9 x_20 + 12 x_30 + 9 x_40 + 18 x_50 + 12 x_60
   + 12 x_70 + 15 x_80 + 9 x_90 + 18 x_100 + 9 x_110 + 18 x_120 + 12 x_130
   + s_0 - e_0 = 400
 R1: 15 x_01 + 15 x_11 + 15 x_21 + 18 x_31 + 12 x_41 + 9 x_51 + 9 x_61
   + 18 x_71 + 12 x_81 + 15 x_91 + 18 x_101 + 15 x_111 + 12 x_121
   + 15 x_131 + 12 x_141 + 15 x_151 + 15 x_161 + s_1 - e_1 = 400
 R2: 15 x_02 + 12 x_12 + 9 x_22 + 18 x_32 + 15 x_42 + 9 x_52 + 15 x_62
   + 9 x_72 + 12 x_82 + 12 x_92 + 15 x_102 + 18 x_112 + 9 x_122 + 18 x_132
   + 18 x_142 + 15 x_152 + 12 x_162 + 9 x_172 + 9 x_182 + 12 x_192 + s_2
   - e_2 = 400
 R3: 15 x_03 + 15 x_13 + 18 x_23 + 18 x_33 + 12 x_43 + 12 x_53 + 12 x_63
   + 15 x_73 + 9 x_83 + 12 x_93 + 12 x_103 + 15 x_113 + 9 x_123 + 15 x_133
   + s_3 - e_3 = 400
 R4: 12 x_04 + 12 x_14 + 12 x_24 + 9 x_34 + 18 x_44 + 18 x_54 + 15 x_64
   + 15 x_74 + 9 x_84 + 18 x_94 + 12 x_104 + 18 x_114 + 18 x_124 + 18 x_134
   + 15 x_144 + 15 x_154 + 12 x_164 + 18 x_174 + 9 x_184 + 12 x_194
   + 15 x_204 + 15 x_214 + 12 x_224 + 18 x_234 + 18 x_244 + 12 x_254 + s_4
   - e_4 = 400
 R5: 15 x_05 + 12 x_15 + 15 x_25 + 18 x_35 + 9 x_45 + 18 x_55 + 18 x_65
   + 12 x_75 + 12 x_85 + 12 x_95 + 18 x_105 + 9 x_115 + 12 x_125 + 12 x_135
   + 15 x_145 + 15 x_155 + 15 x_165 + 15 x_175 + 9 x_185 + 15 x_195
   + 15 x_205 + 12 x_215 + 18 x_225 + 18 x_235 + 15 x_245 + 18 x_255
   + 18 x_265 + 9 x_275 + 18 x_285 + 12 x_295 + 9 x_305 + 9 x_315
   + 12 x_325 + s_5 - e_5 = 400
 R6: 18 x_06 + 9 x_16 + 9 x_26 + 15 x_36 + 15 x_46 + 15 x_56 + 12 x_66
   + 12 x_76 + 12 x_86 + 18 x_96 + 12 x_106 + s_6 - e_6 = 400
 R7: 1e+06 b_0 - e_0 >= 0
 R8: 1e+06 b_1 - e_1 >= 0
 R9: 1e+06 b_2 - e_2 >= 0
 R10: 1e+06 b_3 - e_3 >= 0
 R11: 1e+06 b_4 - e_4 >= 0
 R12: 1e+06 b_5 - e_5 >= 0
 R13: 1e+06 b_6 - e_6 >= 0
 R14: e_0 <= 80
 R15: e_1 <= 80
 R16: e_2 <= 80
 R17: e_3 <= 80
 R18: e_4 <= 80
 R19: e_5 <= 80
 R20: e_6 <= 80
 R21: x_00 <= 1
 R22: x_10 <= 1
 R23: x_20 <= 1
 R24: x_30 <= 1
 R25: x_40 <= 1
 R26: x_50 <= 1
 R27: x_60 <= 1
 R28: x_70 <= 1
 R29: x_80 <= 1
 R30: x_90 <= 1
 R31: x_100 <= 1
 R32: x_110 <= 1
 R33: x_120 <= 1
 R34: x_130 <= 1
 R35: x_01 <= 1
 R36: x_11 <= 1
 R37: x_21 <= 1
 R38: x_31 <= 1
 R39: x_41 <= 1
 R40: x_51 <= 1
 R41: x_61 <= 1
 R42: x_71 <= 1
 R43: x_81 <= 1
 R44: x_91 <= 1
 R45: x_101 <= 1
 R46: x_111 <= 1
 R47: x_121 <= 1
 R48: x_131 <= 1
 R49: x_141 <= 1
 R50: x_151 <= 1
 R51: x_161 <= 1
 R52: x_02 <= 1
 R53: x_12 <= 1
 R54: x_22 <= 1
 R55: x_32 <= 1
 R56: x_42 <= 1
 R57: x_52 <= 1
 R58: x_62 <= 1
 R59: x_72 <= 1
 R60: x_82 <= 1
 R61: x_92 <= 1
 R62: x_102 <= 1
 R63: x_112 <= 1
 R64: x_122 <= 1
 R65: x_132 <= 1
 R66: x_142 <= 1
 R67: x_152 <= 1
 R68: x_162 <= 1
 R69: x_172 <= 1
 R70: x_182 <= 1
 R71: x_192 <= 1
 R72: x_03 <= 1
 R73: x_13 <= 1
 R74: x_23 <= 1
 R75: x_33 <= 1
 R76: x_43 <= 1
 R77: x_53 <= 1
 R78: x_63 <= 1
 R79: x_73 <= 1
 R80: x_83 <= 1
 R81: x_93 <= 1
 R82: x_103 <= 1
 R83: x_113 <= 1
 R84: x_123 <= 1
 R85: x_133 <= 1
 R86: x_04 <= 1
 R87: x_14 <= 1
 R88: x_24 <= 1
 R89: x_34 <= 1
 R90: x_44 <= 1
 R91: x_54 <= 1
 R92: x_64 <= 1
 R93: x_74 <= 1
 R94: x_84 <= 1
 R95: x_94 <= 1
 R96: x_104 <= 1
 R97: x_114 <= 1
 R98: x_124 <= 1
 R99: x_134 <= 1
 R100: x_144 <= 1
 R101: x_154 <= 1
 R102: x_164 <= 1
 R103: x_174 <= 1
 R104: x_184 <= 1
 R105: x_194 <= 1
 R106: x_204 <= 1
 R107: x_214 <= 1
 R108: x_224 <= 1
 R109: x_234 <= 1
 R110: x_244 <= 1
 R111: x_254 <= 1
 R112: x_05 <= 1
 R113: x_15 <= 1
 R114: x_25 <= 1
 R115: x_35 <= 1
 R116: x_45 <= 1
 R117: x_55 <= 1
 R118: x_65 <= 1
 R119: x_75 <= 1
 R120: x_85 <= 1
 R121: x_95 <= 1
 R122: x_105 <= 1
 R123: x_115 <= 1
 R124: x_125 <= 1
 R125: x_135 <= 1
 R126: x_145 <= 1
 R127: x_155 <= 1
 R128: x_165 <= 1
 R129: x_175 <= 1
 R130: x_185 <= 1
 R131: x_195 <= 1
 R132: x_205 <= 1
 R133: x_215 <= 1
 R134: x_225 <= 1
 R135: x_235 <= 1
 R136: x_245 <= 1
 R137: x_255 <= 1
 R138: x_265 <= 1
 R139: x_275 <= 1
 R140: x_285 <= 1
 R141: x_295 <= 1
 R142: x_305 <= 1
 R143: x_315 <= 1
 R144: x_325 <= 1
 R145: x_06 <= 1
 R146: x_16 <= 1
 R147: x_26 <= 1
 R148: x_36 <= 1
 R149: x_46 <= 1
 R150: x_56 <= 1
 R151: x_66 <= 1
 R152: x_76 <= 1
 R153: x_86 <= 1
 R154: x_96 <= 1
 R155: x_106 <= 1
Bounds
Binaries
 x_00 x_10 x_20 x_30 x_40 x_50 x_60 x_70 x_80 x_90 x_100 x_110 x_120 x_130
 x_01 x_11 x_21 x_31 x_41 x_51 x_61 x_71 x_81 x_91 x_101 x_111 x_121 x_131
 x_141 x_151 x_161 x_02 x_12 x_22 x_32 x_42 x_52 x_62 x_72 x_82 x_92 x_102
 x_112 x_122 x_132 x_142 x_152 x_162 x_172 x_182 x_192 x_03 x_13 x_23 x_33
 x_43 x_53 x_63 x_73 x_83 x_93 x_103 x_113 x_123 x_133 x_04 x_14 x_24 x_34
 x_44 x_54 x_64 x_74 x_84 x_94 x_104 x_114 x_124 x_134 x_144 x_154 x_164
 x_174 x_184 x_194 x_204 x_214 x_224 x_234 x_244 x_254 x_05 x_15 x_25 x_35
 x_45 x_55 x_65 x_75 x_85 x_95 x_105 x_115 x_125 x_135 x_145 x_155 x_165
 x_175 x_185 x_195 x_205 x_215 x_225 x_235 x_245 x_255 x_265 x_275 x_285
 x_295 x_305 x_315 x_325 x_06 x_16 x_26 x_36 x_46 x_56 x_66 x_76 x_86 x_96
 x_106 b_0 b_1 b_2 b_3 b_4 b_5 b_6
Generals
 s_0 s_1 s_2 s_3 s_4 s_5 s_6 e_0 e_1 e_2 e_3 e_4 e_5 e_6
End
